1283046
32, 95, 61, 43, 85, 38, 72, 57, 75, 86, 27, 69, 70, 14, 39, 49, 11, 91, 89, 97, 47, 71, 65, 12, 8, 40, 55, 106, 33, 78, 108, 42, 50, 76, 99, 105, 73, 96, 93, 13, 21, 17, 48, 92, 56, 103, 4, 67, 90, 45, 82, 1, 98, 101, 29, 94, 81, 2, 51, 59, 46, 107, 16, 25, 79, 109, 5, 35, 84, 34, 52, 31, 68, 62, 53, 100, 102, 54, 58, 22, 10, 37, 26, 41, 9, 77, 6, 30, 44, 20, 63, 83, 3, 23, 15, 104, 64, 66, 36, 28, 87, 80, 24, 60, 88, 7, 18, 19, 74
